100
14 4
27 0
6 1
28 4
10 1
25 4
18 3
20 4
41 0
36 0
2 3
22 4
37 2
23 3
31 4
18 0
32 4
41 4
3 4
36 3
10 0
21 0
34 4
19 4
13 0
7 4
32 2
26 3
37 0
4 2
26 0
42 0
40 4
8 2
25 1
13 4
4 0
32 3
31 1
24 4
6 2
12 1
2 0
1 4
6 0
29 1
29 4
2 4
35 4
24 1
43 0
14 0
31 3
42 4
43 4
35 3
27 3
44 0
21 2
1 2
8 3
0 3
17 4
38 3
42 1
19 0
44 4
20 3
30 3
18 2
9 3
18 4
8 0
5 3
38 1
9 4
30 4
11 0
41 1
3 0
27 1
0 0
34 0
21 1
33 2
43 1
1 1
15 4
28 0
24 3
15 0
22 0
10 4
31 0
39 3
13 3
14 2
38 0
4 4
3 1

